data/CVRPLIB/Vrp-Set-XML100/instances/XML100_3213_14.vrp
NAME : XML100_3213_14
COMMENT : Generated by Queiroga, Sadykov, Uchoa, and Vidal (2021)
TYPE : CVRP
DIMENSION : 101
EDGE_WEIGHT_TYPE : EUC_2D
CAPACITY : 11
NODE_COORD_SECTION
1    0    0   
2    628  883 
3    38   349 
4    589  675 
5    391  493 
6    568  709 
7    506  700 
8    234  411 
9    434  786 
10   57   386 
11   700  890 
12   598  863 
13   91   315 
14   145  435 
15   7    350 
16   510  875 
17   2    629 
18   590  822 
19   69   543 
20   95   560 
21   61   415 
22   203  412 
23   51   259 
24   29   568 
25   74   320 
26   78   340 
27   600  640 
28   556  672 
29   438  657 
30   365  591 
31   197  478 
32   33   789 
33   74   261 
34   613  779 
35   119  288 
36   294  432 
37   496  780 
38   230  489 
39   449  748 
40   68   325 
41   30   375 
42   105  438 
43   593  552 
44   197  494 
45   144  469 
46   129  481 
47   19   335 
48   544  652 
49   639  696 
50   646  634 
51   161  382 
52   497  452 
53   99   408 
54   488  654 
55   206  580 
56   102  577 
57   534  656 
58   240  352 
59   66   313 
60   199  278 
61   555  810 
62   40   322 
63   222  419 
64   168  370 
65   517  662 
66   154  396 
67   722  892 
68   714  838 
69   644  815 
70   227  607 
71   152  258 
72   92   387 
73   510  635 
74   724  502 
75   924  545 
76   148  390 
77   52   645 
78   117  371 
79   36   545 
80   571  733 
81   90   417 
82   108  346 
83   45   548 
84   64   376 
85   496  631 
86   75   462 
87   22   576 
88   20   343 
89   483  630 
90   609  626 
91   249  416 
92   28   564 
93   34   354 
94   191  579 
95   552  716 
96   60   642 
97   431  655 
98   145  481 
99   561  757 
100  567  711 
101  513  639 
DEMAND_SECTION
1    0   
2    1   
3    1   
4    1   
5    1   
6    1   
7    1   
8    1   
9    1   
10   1   
11   1   
12   1   
13   1   
14   1   
15   1   
16   1   
17   1   
18   1   
19   1   
20   1   
21   1   
22   1   
23   1   
24   1   
25   1   
26   1   
27   1   
28   1   
29   1   
30   1   
31   1   
32   1   
33   1   
34   1   
35   1   
36   1   
37   1   
38   1   
39   1   
40   1   
41   1   
42   1   
43   1   
44   1   
45   1   
46   1   
47   1   
48   1   
49   1   
50   1   
51   1   
52   1   
53   1   
54   1   
55   1   
56   1   
57   1   
58   1   
59   1   
60   1   
61   1   
62   1   
63   1   
64   1   
65   1   
66   1   
67   1   
68   1   
69   1   
70   1   
71   1   
72   1   
73   1   
74   1   
75   1   
76   1   
77   1   
78   1   
79   1   
80   1   
81   1   
82   1   
83   1   
84   1   
85   1   
86   1   
87   1   
88   1   
89   1   
90   1   
91   1   
92   1   
93   1   
94   1   
95   1   
96   1   
97   1   
98   1   
99   1   
100  1   
101  1   
DEPOT_SECTION
1
-1
EOF
