data/CVRPLIB/Vrp-Set-XML100/solutions/XML100_3213_14.sol
Route #1: 22
Route #2: 34 81 77 71 52 80 20 9 83 25 12
Route #3: 70 63 50 75 65 21 62 7 90 57 59
Route #4: 6 94 5 99 79 98 33 68 17 60 36
Route #5: 35 4 88 84 72 100 53 28 96 29 37
Route #6: 85 18 95 76 31 16 86 23 91 82 78
Route #7: 32 58 24 39 2 92 40 14 87 46 61
Route #8: 64 56 47 27 3 48 49 26 89 42 51
Route #9: 41 44 97 45 19 55 93 54 43 30 13
Route #10: 73 74 67 66 10 1 11 15 8 38 69
Cost 14960
